
Gurobi 12.0.3 (win64, gurobi_cl) logging started Sun Sep 21 19:20:06 2025

Set parameter Username
Set parameter LicenseID to value 2711102
Set parameter TimeLimit to value 18000
Set parameter LogFile to value "gurobi.log"
Using license file C:\Users\Boxing\gurobi.lic
Academic license - for non-commercial use only - expires 2026-09-20

Gurobi Optimizer version 12.0.3 build v12.0.3rc0 (win64 - Windows 11.0 (26100.2))
Copyright (c) 2025, Gurobi Optimization, LLC

Read LP format model from file C:\Users\Boxing\AppData\Local\Temp\bb0aa62fbf004ed489a7ed1b688385fe-pulp.lp
Reading time = 0.01 seconds
Total_Distance: 71 rows, 71 columns, 278 nonzeros

Using Gurobi shared library C:\gurobi1203\win64\bin\gurobi120.dll

CPU model: Intel(R) Core(TM) i5-14500, instruction set [SSE2|AVX|AVX2]
Thread count: 14 physical cores, 20 logical processors, using up to 20 threads

Non-default parameters:
TimeLimit  18000

Optimize a model with 71 rows, 71 columns and 278 nonzeros
Model fingerprint: 0xb3336ccd
Variable types: 7 continuous, 64 integer (64 binary)
Coefficient statistics:
  Matrix range     [1e+00, 8e+00]
  Objective range  [1e+02, 3e+03]
  Bounds range     [1e+00, 7e+00]
  RHS range        [1e+00, 7e+00]
Found heuristic solution: objective 12883.979954
Presolve removed 7 rows and 4 columns
Presolve time: 0.00s
Presolved: 64 rows, 67 columns, 522 nonzeros
Variable types: 7 continuous, 60 integer (60 binary)

Root relaxation: objective 3.906046e+03, 25 iterations, 0.00 seconds (0.00 work units)

    Nodes    |    Current Node    |     Objective Bounds      |     Work
 Expl Unexpl |  Obj  Depth IntInf | Incumbent    BestBd   Gap | It/Node Time

     0     0 3906.04571    0   14 12883.9800 3906.04571  69.7%     -    0s
H    0     0                    7929.9829453 3906.04571  50.7%     -    0s
H    0     0                    7841.0717758 3906.04571  50.2%     -    0s
H    0     0                    7710.5529846 3906.04571  49.3%     -    0s
     0     0 5363.12291    0    6 7710.55298 5363.12291  30.4%     -    0s
     0     0 5391.39877    0    6 7710.55298 5391.39877  30.1%     -    0s
     0     0 5460.36429    0    9 7710.55298 5460.36429  29.2%     -    0s
     0     0 5725.88153    0   10 7710.55298 5725.88153  25.7%     -    0s
H    0     0                    7661.4138315 5753.83757  24.9%     -    0s
     0     0 5753.83757    0    6 7661.41383 5753.83757  24.9%     -    0s
     0     0 5838.29281    0    8 7661.41383 5838.29281  23.8%     -    0s
     0     0 5969.32729    0   13 7661.41383 5969.32729  22.1%     -    0s
     0     0 6009.81717    0   10 7661.41383 6009.81717  21.6%     -    0s
     0     0 6319.87322    0    8 7661.41383 6319.87322  17.5%     -    0s
     0     0 6319.87322    0    8 7661.41383 6319.87322  17.5%     -    0s
     0     0 6319.87322    0   11 7661.41383 6319.87322  17.5%     -    0s
     0     0 6319.87322    0    4 7661.41383 6319.87322  17.5%     -    0s
     0     0 6319.87322    0    8 7661.41383 6319.87322  17.5%     -    0s
     0     0 6319.87322    0    9 7661.41383 6319.87322  17.5%     -    0s
     0     0 6319.87322    0    6 7661.41383 6319.87322  17.5%     -    0s

Cutting planes:
  Gomory: 1
  Cover: 1
  Implied bound: 1
  Clique: 4
  MIR: 3
  Zero half: 1
  Relax-and-lift: 2

Explored 1 nodes (121 simplex iterations) in 0.04 seconds (0.01 work units)
Thread count was 20 (of 20 available processors)

Solution count 5: 7661.41 7710.55 7841.07 ... 12884

Solve interrupted
Best objective 7.661413831470e+03, best bound 6.319873215241e+03, gap 17.5104%

Wrote result file 'C:\Users\Boxing\AppData\Local\Temp\bb0aa62fbf004ed489a7ed1b688385fe-pulp.sol'

